NAME: cum160.tsp
TYPE: TSP
COMMENT: User-generated TSP file
DIMENSION: 160
EDGE_WEIGHT_TYPE: EUC_2D
NODE_COORD_SECTION
1 100.0 85.0
2 126.0 34.0
3 23.0 123.0
4 116.0 5.0
5 128.0 54.0
6 82.0 50.0
7 46.0 134.0
8 51.0 31.0
9 27.0 138.0
10 102.0 106.0
11 158.0 66.0
12 83.0 17.0
13 91.0 102.0
14 115.0 87.0
15 97.0 51.0
16 34.0 126.0
17 142.0 67.0
18 86.0 30.0
19 76.0 102.0
20 25.0 85.0
21 136.0 115.0
22 53.0 78.0
23 158.0 155.0
24 15.0 144.0
25 114.0 135.0
26 20.0 91.0
27 140.0 149.0
28 73.0 137.0
29 31.0 2.0
30 42.0 2.0
31 23.0 44.0
32 34.0 120.0
33 16.0 44.0
34 12.0 70.0
35 119.0 134.0
36 138.0 150.0
37 110.0 156.0
38 125.0 26.0
39 37.0 120.0
40 95.0 57.0
41 159.0 131.0
42 39.0 21.0
43 135.0 158.0
44 40.0 97.0
45 85.0 50.0
46 77.0 27.0
47 94.0 131.0
48 38.0 152.0
49 2.0 120.0
50 30.0 66.0
51 10.0 48.0
52 150.0 43.0
53 122.0 147.0
54 139.0 155.0
55 2.0 137.0
56 129.0 100.0
57 83.0 155.0
58 61.0 100.0
59 155.0 98.0
60 50.0 27.0
61 155.0 100.0
62 135.0 73.0
63 151.0 143.0
64 88.0 65.0
65 2.0 148.0
66 109.0 63.0
67 55.0 1.0
68 86.0 141.0
69 34.0 103.0
70 67.0 19.0
71 126.0 57.0
72 123.0 139.0
73 69.0 146.0
74 71.0 26.0
75 23.0 128.0
76 33.0 13.0
77 100.0 106.0
78 45.0 97.0
79 84.0 36.0
80 158.0 76.0
81 20.0 70.0
82 109.0 131.0
83 96.0 88.0
84 24.0 76.0
85 3.0 154.0
86 140.0 85.0
87 116.0 128.0
88 74.0 5.0
89 123.0 157.0
90 53.0 93.0
91 28.0 90.0
92 80.0 66.0
93 85.0 80.0
94 106.0 52.0
95 8.0 28.0
96 71.0 100.0
97 130.0 47.0
98 114.0 87.0
99 112.0 80.0
100 110.0 158.0
101 30.0 30.0
102 141.0 82.0
103 78.0 10.0
104 22.0 91.0
105 50.0 85.0
106 15.0 102.0
107 87.0 79.0
108 13.0 153.0
109 109.0 103.0
110 101.0 94.0
111 124.0 87.0
112 82.0 66.0
113 67.0 148.0
114 93.0 144.0
115 95.0 57.0
116 150.0 29.0
117 113.0 145.0
118 44.0 132.0
119 25.0 7.0
120 152.0 63.0
121 63.0 91.0
122 115.0 56.0
123 97.0 43.0
124 79.0 158.0
125 42.0 11.0
126 136.0 30.0
127 130.0 2.0
128 95.0 13.0
129 86.0 130.0
130 55.0 54.0
131 98.0 19.0
132 66.0 32.0
133 45.0 25.0
134 120.0 28.0
135 70.0 81.0
136 97.0 35.0
137 23.0 153.0
138 148.0 29.0
139 70.0 4.0
140 4.0 107.0
141 75.0 18.0
142 89.0 50.0
143 144.0 113.0
144 112.0 151.0
145 115.0 132.0
146 6.0 125.0
147 79.0 106.0
148 99.0 103.0
149 65.0 79.0
150 21.0 12.0
151 72.0 124.0
152 109.0 43.0
153 78.0 118.0
154 1.0 64.0
155 29.0 76.0
156 148.0 42.0
157 123.0 110.0
158 65.0 42.0
159 39.0 34.0
160 75.0 26.0
EOF





